c   #vars: 77   #clauses: 360   #literals: 1042
c 
p cnf 77 360
13 75 76 -77 0
-2 -3 0
-5 -6 0
-7 -8 0
-9 -10 0
-11 -12 0
17 42 43 -48 0
-14 -15 0
26 32 33 -65 0
-19 -20 0
-21 -22 0
-23 -24 0
-5 18 -28 45 0
29 53 54 -69 0
-27 -28 0
25 -30 32 33 0
-30 -31 0
-32 -33 0
-34 -35 0
1 -65 71 72 0
-36 -37 0
-38 -39 0
-40 -41 0
-42 -43 0
13 -21 -56 77 0
27 28 61 62 0
5 6 45 -70 0
48 49 71 72 0
-34 36 37 52 0
-46 -47 0
-48 -49 0
-50 -51 0
23 24 -29 69 0
46 47 61 62 0
19 20 67 68 0
19 20 27 28 0
-53 -54 0
-55 -56 0
-57 -58 0
-59 -60 0
-61 -62 0
-63 -64 0
-65 -66 0
-67 -68 0
9 10 -45 70 0
27 28 -36 52 0
4 38 39 -51 0
9 10 27 28 0
-71 -72 0
9 10 73 74 0
-73 -74 0
19 20 63 64 0
-75 -76 0
13 -56 75 76 0
-1 -28 0
18 -28 45 -70 0
13 55 56 -77 0
-1 -66 0
-8 -9 29 69 0
13 55 56 -76 0
-1 -72 0
5 6 -18 45 0
-3 -44 0
-2 -50 0
-3 -51 0
-13 21 22 77 0
-2 -63 0
-3 -64 0
30 31 67 68 0
-2 -71 0
-3 -72 0
48 49 57 58 0
-2 -75 0
-3 -76 0
-4 -38 0
36 37 71 72 0
17 36 37 -42 0
7 8 53 54 0
-4 -50 0
16 -43 59 60 0
4 -51 57 58 0
-4 -53 0
16 -41 59 60 0
-18 -33 45 70 0
-4 -57 0
16 42 43 -60 0
9 10 50 51 0
-5 -42 0
-6 -43 0
38 39 65 66 0
-27 36 37 52 0
-6 -45 0
16 -41 42 43 0
-5 -71 0
-6 -72 0
-5 -75 0
-6 -76 0
44 57 58 -67 0
-7 -34 0
-8 -35 0
13 -23 -56 77 0
-7 -53 0
-8 -54 0
-7 -59 0
-8 -60 0
32 33 71 72 0
-7 -63 0
-8 -64 0
-24 29 -53 69 0
-7 -69 0
9 10 -33 70 0
38 39 59 60 0
-9 -27 0
-10 -28 0
-2 44 57 58 0
25 32 33 -59 0
-10 -29 0
-9 -40 0
-10 -41 0
50 51 57 58 0
-9 -50 0
-10 -51 0
42 43 73 74 0
-9 -67 0
-10 -68 0
9 10 29 -53 0
-9 -70 0
4 53 54 -58 0
9 10 67 68 0
-9 -73 0
-10 -74 0
9 10 40 41 0
-11 -40 0
-12 -41 0
-11 -42 0
-12 -43 0
26 50 51 -65 0
-11 -55 0
-12 -56 0
21 22 46 47 0
-11 -73 0
-12 -74 0
34 35 59 60 0
-13 -55 0
17 -36 42 43 0
-13 -75 0
17 -42 48 49 0
17 -36 48 49 0
27 28 -34 52 0
-14 -38 0
-15 -39 0
13 -23 -76 77 0
-14 -40 0
-15 -41 0
34 35 73 74 0
-14 -61 0
-15 -62 0
16 40 41 -60 0
-14 -73 0
-15 -74 0
-16 -40 0
-16 -42 0
13 -21 -76 77 0
1 -27 65 66 0
7 8 59 60 0
9 10 29 -69 0
-2 44 67 68 0
-16 -59 0
25 -32 59 60 0
26 32 33 -50 0
-17 -37 0
21 22 57 58 0
26 -50 65 66 0
-17 -43 0
36 37 65 66 0
26 -32 65 66 0
-17 -49 0
1 27 28 -71 0
-18 -27 0
1 -27 71 72 0
2 3 44 -67 0
25 30 31 -59 0
34 35 -36 52 0
46 47 71 72 0
-18 -67 0
-19 -27 0
-20 -28 0
7 8 34 35 0
-19 -30 0
-20 -31 0
14 15 73 74 0
1 27 28 -65 0
21 22 30 31 0
-19 -46 0
-20 -47 0
2 3 75 76 0
-19 -63 0
-20 -64 0
-19 -67 0
-20 -68 0
-8 29 -53 69 0
-21 -30 0
-22 -31 0
23 24 63 64 0
-21 -36 0
-22 -37 0
-21 -46 0
-22 -47 0
-10 -18 45 70 0
-21 -57 0
-22 -58 0
-21 -59 0
-22 -60 0
4 50 51 -58 0
-22 -77 0
23 24 32 33 0
-23 -32 0
-24 -33 0
32 33 61 62 0
-23 -46 0
-24 -47 0
18 45 -68 -70 0
-23 -57 0
-24 -58 0
5 6 75 76 0
-23 -63 0
-24 -64 0
-9 -24 29 69 0
-23 -69 0
32 33 -45 70 0
25 -30 59 60 0
-24 -77 0
4 -54 57 58 0
18 27 28 -68 0
-25 -31 0
27 28 63 64 0
18 27 28 -45 0
-25 -33 0
40 41 73 74 0
1 65 66 -71 0
2 3 44 -57 0
34 35 67 68 0
18 -45 67 68 0
-25 -60 0
21 22 59 60 0
-9 29 53 54 0
-26 -33 0
19 20 46 47 0
-5 -10 45 70 0
-26 -51 0
36 37 59 60 0
-5 -33 45 70 0
-26 -66 0
4 -39 57 58 0
-8 23 24 69 0
-28 -52 0
7 8 63 64 0
-27 -61 0
-28 -62 0
-27 -63 0
-28 -64 0
19 20 30 31 0
-27 -75 0
-28 -76 0
14 15 38 39 0
-5 18 45 -68 0
-29 -54 0
26 -32 50 51 0
18 -28 67 68 0
-10 32 33 70 0
4 -39 50 51 0
-30 -61 0
-31 -62 0
11 12 73 74 0
-30 -67 0
-31 -68 0
2 3 63 64 0
-32 -61 0
-33 -62 0
27 28 75 76 0
-32 -70 0
4 -51 53 54 0
21 22 36 37 0
-32 -71 0
-33 -72 0
4 50 51 -54 0
7 8 -29 69 0
-35 -52 0
-34 -59 0
-35 -60 0
14 15 40 41 0
-34 -67 0
-35 -68 0
11 12 40 41 0
-34 -73 0
-35 -74 0
5 6 71 72 0
44 -57 67 68 0
46 47 55 56 0
7 8 -24 69 0
-37 -52 0
38 39 75 76 0
-36 -59 0
-37 -60 0
-36 -65 0
-37 -66 0
38 39 55 56 0
-36 -71 0
-37 -72 0
30 31 61 62 0
-38 -55 0
-39 -56 0
23 24 46 47 0
-38 -59 0
-39 -60 0
21 22 -23 77 0
-38 -65 0
-39 -66 0
-38 -75 0
-39 -76 0
11 12 42 43 0
-40 -73 0
-41 -74 0
11 12 55 56 0
-42 -73 0
-43 -74 0
-13 23 24 77 0
17 36 37 -48 0
2 3 71 72 0
4 38 39 -54 0
-44 -58 0
5 6 42 43 0
4 38 39 -58 0
-44 -68 0
16 40 41 -43 0
-27 34 35 52 0
4 -39 53 54 0
14 15 61 62 0
-46 -55 0
-47 -56 0
-21 23 24 77 0
-46 -61 0
-47 -62 0
50 51 55 56 0
-46 -71 0
-47 -72 0
48 49 53 54 0
-48 -53 0
-49 -54 0
25 30 31 -32 0
-48 -57 0
-49 -58 0
-48 -71 0
-49 -72 0
2 3 50 51 0
-50 -55 0
-51 -56 0
23 24 57 58 0
-50 -57 0
-51 -58 0
